0000000000000000
0000000000000000
0000000000000000
0000000000000000
0000000001000000
0001111111000000
0001111101100000
0000000000110000
0001000000110000
0001000000110000
0001000000110000
0001000000110000
0001000000110000
0001000000110000
0000100000000000
0000000000000000
